 &bands
    prefix  = 'si'
    outdir = 'tmp/'
    filband = 'sibands.dat'
 /
